************************************************************************
file with basedata            : n/a
initial value random generator: n/a
************************************************************************
projects                      :  1
jobs (incl. supersource/sink ):  122
horizon                       :  635
RESOURCES
  - renewable                 :  4   R
  - nonrenewable              :  0   N
  - doubly constrained        :  0   D
************************************************************************
PROJECT INFORMATION:
pronr.  #jobs rel.date duedate tardcost  MPM-Time
    1    120      0       96       27       96
************************************************************************
PRECEDENCE RELATIONS:
jobnr.    #modes  #successors   successors
   1        1          3           2   3   4
   2        1          3          18  33  72
   3        1          3           5  14  16
   4        1          3           7   8   9
   5        1          3           6  12  21
   6        1          3          11  13  46
   7        1          3          16  22  23
   8        1          3          33  34  44
   9        1          2          10  53
  10        1          3          15  35  79
  11        1          2          19  24
  12        1          3          17  28  29
  13        1          3          26  32  35
  14        1          3          36  41  47
  15        1          2          22  83
  16        1          2          42  65
  17        1          1          20
  18        1          3          40  49  81
  19        1          3          20  25  53
  20        1          3          30  62  93
  21        1          3          27  31  47
  22        1          3          38  54  99
  23        1          3          61  80 113
  24        1          3          29  68  84
  25        1          3          48  67  71
  26        1          2          34 103
  27        1          3          50  55  85
  28        1          2          39  75
  29        1          3          48  59 100
  30        1          3          34  50 102
  31        1          3          37  48 105
  32        1          2          52  75
  33        1          2          35  80
  34        1          2          58  99
  35        1          3          41  54  57
  36        1          1          38
  37        1          3          43  68  71
  38        1          3          76  86 101
  39        1          3          56  67  86
  40        1          3          43  56  63
  41        1          3          45  52  69
  42        1          3          57  61 111
  43        1          3          69  90  94
  44        1          3          56  57  91
  45        1          3          51  55  83
  46        1          1          58
  47        1          3          59  80  96
  48        1          3          65  98 106
  49        1          2          50  62
  50        1          1         117
  51        1          3          60  64  94
  52        1          2          60  64
  53        1          2          54  66
  54        1          3          87  95 107
  55        1          3          84  88  93
  56        1          2          99 103
  57        1          2          68 113
  58        1          2          94 105
  59        1          3          65  97 121
  60        1          3          66  73  77
  61        1          3          74  86 103
  62        1          3          66  70  79
  63        1          1          78
  64        1          3          87  95 111
  65        1          2          72  82
  66        1          1         117
  67        1          3          69  73  81
  68        1          2          90  97
  69        1          1          89
  70        1          3          74  76 108
  71        1          3          73  92 109
  72        1          1          74
  73        1          2          82 110
  74        1          1         102
  75        1          3          76  79  89
  76        1          1         106
  77        1          3          85  87  98
  78        1          2          82 100
  79        1          2          90 110
  80        1          1          85
  81        1          2          83  84
  82        1          2          88 117
  83        1          2          89 109
  84        1          2         100 101
  85        1          2         101 106
  86        1          2          91 115
  87        1          2          88 104
  88        1          1         119
  89        1          2          92 118
  90        1          1         121
  91        1          2          92  98
  92        1          2          93  97
  93        1          1          96
  94        1          3          95  96 115
  95        1          2         104 116
  96        1          1         112
  97        1          1         102
  98        1          2         107 112
  99        1          1         120
 100        1          1         105
 101        1          1         108
 102        1          1         119
 103        1          2         104 107
 104        1          1         120
 105        1          2         108 109
 106        1          1         111
 107        1          1         114
 108        1          2         114 121
 109        1          1         110
 110        1          2         112 113
 111        1          1         114
 112        1          1         116
 113        1          1         115
 114        1          1         118
 115        1          1         116
 116        1          1         119
 117        1          1         118
 118        1          1         120
 119        1          1         122
 120        1          1         122
 121        1          1         122
 122        1          0        
************************************************************************
REQUESTS/DURATIONS:
jobnr. mode duration  R 1  R 2  R 3  R 4
------------------------------------------------------------------------
  1      1     0    
  2      1     7       4   4   2   4   4   4   4
                       8   8   4   8   8   8   8
                       4   4   2   4   4   4   4
                       7   7   4   7   7   7   7
  3      1     9       2   2   1   2   2   2   1   2   2
                       7   7   4   7   7   7   4   7   7
                       7   7   4   7   7   7   4   7   7
                       9   9   5   9   9   9   5   9   9
  4      1     2       4   4
                       8   8
                       3   3
                       4   4
  5      1     7       7   4   7   7   7   7   7
                       5   3   5   5   5   5   5
                       7   4   7   7   7   7   7
                      10   5  10  10  10  10  10
  6      1    10       3   3   3   3   3   3   3   3   3   3
                       1   1   1   1   1   1   1   1   1   1
                       9   9   9   9   9   9   9   9   9   9
                       5   5   5   5   5   5   5   5   5   5
  7      1     7       3   3   3   3   3   3   3
                       6   6   6   6   6   6   6
                       8   8   8   8   8   8   8
                      10  10  10  10  10  10  10
  8      1     4       2   2   1   2
                       2   2   1   2
                       9   9   5   9
                       1   1   1   1
  9      1    10      10   5  10  10  10   5  10  10  10  10
                       4   2   4   4   4   2   4   4   4   4
                      10   5  10  10  10   5  10  10  10  10
                       8   4   8   8   8   4   8   8   8   8
 10      1    10      10  10  10  10  10  10  10  10  10  10
                       4   4   4   4   4   4   4   4   4   4
                       7   7   7   7   7   7   7   7   7   7
                       5   5   5   5   5   5   5   5   5   5
 11      1     2      10  10
                       9   9
                      10  10
                       5   5
 12      1     5       8   8   8   8   8
                       7   7   7   7   7
                       6   6   6   6   6
                       5   5   5   5   5
 13      1     4       4   4   4   4
                       5   5   5   5
                       2   2   2   2
                      10  10  10  10
 14      1     6       3   3   3   3   3   3
                      10  10  10  10  10  10
                       7   7   7   7   7   7
                       7   7   7   7   7   7
 15      1     4       8   8   8   8
                       5   5   5   5
                       4   4   4   4
                      10  10  10  10
 16      1     1       1
                       1
                       4
                       5
 17      1     1       9
                       8
                       1
                       6
 18      1     8       3   3   3   3   3   3   3   3
                       5   5   5   5   5   5   5   5
                       6   6   6   6   6   6   6   6
                       8   8   8   8   8   8   8   8
 19      1     6       7   7   7   7   7   7
                       1   1   1   1   1   1
                       6   6   6   6   6   6
                       3   3   3   3   3   3
 20      1     5       6   6   6   6   6
                       4   4   4   4   4
                       8   8   8   8   8
                       6   6   6   6   6
 21      1     6       8   8   8   8   8   8
                       8   8   8   8   8   8
                       3   3   3   3   3   3
                      10  10  10  10  10  10
 22      1     2       4   4
                       7   7
                       3   3
                       3   3
 23      1     7       1   1   1   1   1   1   1
                       9   9   9   9   9   9   9
                       9   9   9   9   9   9   9
                       3   3   3   3   3   3   3
 24      1     3       5   5   5
                       8   8   8
                       1   1   1
                       3   3   3
 25      1    10      10  10   5  10  10  10  10  10  10  10
                       2   2   1   2   2   2   2   2   2   2
                       8   8   4   8   8   8   8   8   8   8
                       6   6   3   6   6   6   6   6   6   6
 26      1    10       4   4   4   4   4   4   4   4   4   4
                       1   1   1   1   1   1   1   1   1   1
                       6   6   6   6   6   6   6   6   6   6
                       4   4   4   4   4   4   4   4   4   4
 27      1    10       4   4   4   4   4   4   4   4   2   4
                       3   3   3   3   3   3   3   3   2   3
                       5   5   5   5   5   5   5   5   3   5
                       8   8   8   8   8   8   8   8   4   8
 28      1     1       7
                       5
                       2
                       5
 29      1     3       3   3   3
                       3   3   3
                       1   1   1
                       1   1   1
 30      1     2       5   5
                       8   8
                       1   1
                       9   9
 31      1     1       1
                       3
                       5
                       9
 32      1     7       4   4   4   4   4   4   4
                       9   9   9   9   9   9   9
                       5   5   5   5   5   5   5
                       7   7   7   7   7   7   7
 33      1     9       1   1   1   1   1   1   1   1   1
                       2   2   2   2   2   2   2   2   2
                       4   4   4   4   4   4   4   4   4
                       7   7   7   7   7   7   7   7   7
 34      1     2       6   6
                       1   1
                       6   6
                      10  10
 35      1     6       2   2   2   2   2   2
                       9   9   9   9   9   9
                       7   7   7   7   7   7
                      10  10  10  10  10  10
 36      1     4       5   5   5   5
                       7   7   7   7
                       8   8   8   8
                       9   9   9   9
 37      1     9       3   5   5   5   5   5   5   5   5
                       3   5   5   5   5   5   5   5   5
                       2   3   3   3   3   3   3   3   3
                       1   2   2   2   2   2   2   2   2
 38      1    10       2   2   2   2   2   2   2   2   2   2
                       1   1   1   1   1   1   1   1   1   1
                       3   3   3   3   3   3   3   3   3   3
                       8   8   8   8   8   8   8   8   8   8
 39      1     3       4   4   4
                       2   2   2
                       1   1   1
                       7   7   7
 40      1    10       9   9   9   9   9   9   9   9   9   9
                       3   3   3   3   3   3   3   3   3   3
                       3   3   3   3   3   3   3   3   3   3
                       5   5   5   5   5   5   5   5   5   5
 41      1     4       6   6   6   6
                       2   2   2   2
                       8   8   8   8
                       1   1   1   1
 42      1     4      10  10  10  10
                       2   2   2   2
                       2   2   2   2
                       7   7   7   7
 43      1     8       5   5   5   5   5   5   5   5
                       2   2   2   2   2   2   2   2
                      10  10  10  10  10  10  10  10
                       1   1   1   1   1   1   1   1
 44      1    10      10  10  10  10  10  10  10  10  10   5
                       1   1   1   1   1   1   1   1   1   1
                      10  10  10  10  10  10  10  10  10   5
                       9   9   9   9   9   9   9   9   9   5
 45      1     6       3   3   3   2   3   3
                       3   3   3   2   3   3
                       5   5   5   3   5   5
                      10  10  10   5  10  10
 46      1     2       5   5
                       8   8
                       4   4
                       1   1
 47      1     1       2
                       2
                       3
                       4
 48      1     4       4   4   4   4
                       7   7   7   7
                       8   8   8   8
                       8   8   8   8
 49      1     7       8   8   8   8   8   8   8
                       4   4   4   4   4   4   4
                       8   8   8   8   8   8   8
                       8   8   8   8   8   8   8
 50      1     2       9   9
                       4   4
                      10  10
                       2   2
 51      1     9       8   8   8   8   8   8   8   8   8
                       4   4   4   4   4   4   4   4   4
                       4   4   4   4   4   4   4   4   4
                       8   8   8   8   8   8   8   8   8
 52      1     8       6   6   6   6   6   6   6   6
                       6   6   6   6   6   6   6   6
                       8   8   8   8   8   8   8   8
                       2   2   2   2   2   2   2   2
 53      1    10       2   2   2   2   2   2   2   2   2   2
                       9   9   9   9   9   9   9   9   9   9
                       3   3   3   3   3   3   3   3   3   3
                      10  10  10  10  10  10  10  10  10  10
 54      1     8       6   6   6   6   6   6   6   6
                       1   1   1   1   1   1   1   1
                       7   7   7   7   7   7   7   7
                       1   1   1   1   1   1   1   1
 55      1     2       1   1
                       8   8
                       7   7
                       8   8
 56      1     4       1   1   1   1
                       9   9   9   9
                       1   1   1   1
                       7   7   7   7
 57      1     6       7   7   7   7   7   7
                       6   6   6   6   6   6
                       5   5   5   5   5   5
                       8   8   8   8   8   8
 58      1    10       9   9   9   9   9   9   9   9   9   9
                       7   7   7   7   7   7   7   7   7   7
                       2   2   2   2   2   2   2   2   2   2
                       4   4   4   4   4   4   4   4   4   4
 59      1     4       7   7   7   7
                       8   8   8   8
                       5   5   5   5
                       6   6   6   6
 60      1     4       4   4   4   4
                       2   2   2   2
                       3   3   3   3
                       9   9   9   9
 61      1     3       6   6   3
                      10  10   5
                       9   9   5
                       9   9   5
 62      1     1       4
                       5
                       2
                       6
 63      1     2       2   2
                       7   7
                       3   3
                       5   5
 64      1     6       7   7   7   7   7   7
                       7   7   7   7   7   7
                       5   5   5   5   5   5
                       6   6   6   6   6   6
 65      1     1       4
                       1
                      10
                       7
 66      1     3       9   9   9
                       2   2   2
                       3   3   3
                       6   6   6
 67      1     2       6   6
                       7   7
                       3   3
                       7   7
 68      1     7       5   9   5   9   9   5   9
                       4   7   4   7   7   4   7
                       5  10   5  10  10   5  10
                       2   4   2   4   4   2   4
 69      1    10       2   2   2   1   2   2   2   2   2   2
                       3   3   3   2   3   3   3   3   3   3
                       9   9   9   5   9   9   9   9   9   9
                       1   1   1   1   1   1   1   1   1   1
 70      1     1       8
                       3
                       9
                       5
 71      1     2       2   2
                      10  10
                       4   4
                       1   1
 72      1     6       5   5   5   5   5   5
                       4   4   4   4   4   4
                       4   4   4   4   4   4
                       7   7   7   7   7   7
 73      1     9       7   7   7   7   4   7   7   4   7
                       7   7   7   7   4   7   7   4   7
                       8   8   8   8   4   8   8   4   8
                       8   8   8   8   4   8   8   4   8
 74      1     2       8   8
                       4   4
                       3   3
                      10  10
 75      1    10       8   8   8   8   8   8   8   8   8   8
                       8   8   8   8   8   8   8   8   8   8
                       7   7   7   7   7   7   7   7   7   7
                       2   2   2   2   2   2   2   2   2   2
 76      1     1       9
                       6
                       9
                       9
 77      1     9       4   4   4   4   4   4   4   4   4
                       3   3   3   3   3   3   3   3   3
                       4   4   4   4   4   4   4   4   4
                       3   3   3   3   3   3   3   3   3
 78      1     4       7   7   7   7
                       1   1   1   1
                       5   5   5   5
                       6   6   6   6
 79      1     1       3
                       8
                       3
                       2
 80      1     7       2   2   2   2   1   2   2
                       5   5   5   5   3   5   5
                       3   3   3   3   2   3   3
                       7   7   7   7   4   7   7
 81      1    10       8   4   4   8   8   8   8   8   8   8
                      10   5   5  10  10  10  10  10  10  10
                       7   4   4   7   7   7   7   7   7   7
                       5   3   3   5   5   5   5   5   5   5
 82      1     7       5   5   5   5   5   5   5
                       9   9   9   9   9   9   9
                       4   4   4   4   4   4   4
                       7   7   7   7   7   7   7
 83      1     2      10  10
                       5   5
                       7   7
                       3   3
 84      1     3       2   2   2
                       7   7   7
                       8   8   8
                       7   7   7
 85      1     4       3   3   3   3
                      10  10  10  10
                       9   9   9   9
                       7   7   7   7
 86      1    10       4   4   4   4   4   4   4   4   4   4
                       8   8   8   8   8   8   8   8   8   8
                       2   2   2   2   2   2   2   2   2   2
                       6   6   6   6   6   6   6   6   6   6
 87      1     2      10  10
                      10  10
                       8   8
                       2   2
 88      1     7       3   3   3   3   3   3   3
                       8   8   8   8   8   8   8
                       3   3   3   3   3   3   3
                       1   1   1   1   1   1   1
 89      1     3       8   8   8
                       7   7   7
                       4   4   4
                       7   7   7
 90      1     9       4   4   2   4   4   2   4   4   4
                      10  10   5  10  10   5  10  10  10
                       1   1   1   1   1   1   1   1   1
                       1   1   1   1   1   1   1   1   1
 91      1     2       1   1
                       5   5
                       4   4
                       2   2
 92      1     8       5   5   5   5   5   5   5   5
                       8   8   8   8   8   8   8   8
                       9   9   9   9   9   9   9   9
                       3   3   3   3   3   3   3   3
 93      1    10       2   2   2   2   2   2   2   2   2   2
                       9   9   9   9   9   9   9   9   9   9
                       2   2   2   2   2   2   2   2   2   2
                       5   5   5   5   5   5   5   5   5   5
 94      1     6       6   6   6   6   6   6
                       8   8   8   8   8   8
                       5   5   5   5   5   5
                       1   1   1   1   1   1
 95      1    10       9   9   9   9   9   9   9   9   9   9
                       6   6   6   6   6   6   6   6   6   6
                       7   7   7   7   7   7   7   7   7   7
                       5   5   5   5   5   5   5   5   5   5
 96      1     7       1   1   1   1   1   1   1
                       3   3   3   2   3   3   3
                       9   9   9   5   9   9   9
                       6   6   6   3   6   6   6
 97      1     4       4   4   4   4
                      10  10  10  10
                       8   8   8   8
                       8   8   8   8
 98      1    10       3   3   3   3   3   3   3   3   3   2
                       3   3   3   3   3   3   3   3   3   2
                       8   8   8   8   8   8   8   8   8   4
                       7   7   7   7   7   7   7   7   7   4
 99      1     3       8   8   8
                       4   4   4
                      10  10  10
                       6   6   6
100      1     2       1   1
                       7   7
                      10  10
                       8   8
101      1     1       3
                       8
                       5
                       2
102      1    10       7   7   7   4   7   7   7   7   7   4
                       5   5   5   3   5   5   5   5   5   3
                       8   8   8   4   8   8   8   8   8   4
                       3   3   3   2   3   3   3   3   3   2
103      1    10       4   4   4   4   4   4   4   4   4   4
                      10  10  10  10  10  10  10  10  10  10
                       3   3   3   3   3   3   3   3   3   3
                       2   2   2   2   2   2   2   2   2   2
104      1     2       4   2
                       1   1
                       2   1
                       8   4
105      1     6       8   8   8   8   8   8
                       8   8   8   8   8   8
                       8   8   8   8   8   8
                       3   3   3   3   3   3
106      1     7       7   7   7   7   7   7   7
                       3   3   3   3   3   3   3
                       5   5   5   5   5   5   5
                       3   3   3   3   3   3   3
107      1     1       7
                       9
                       4
                       1
108      1    10       2   3   3   3   3   3   3   3   3   3
                       5  10  10  10  10  10  10  10  10  10
                       2   4   4   4   4   4   4   4   4   4
                       1   1   1   1   1   1   1   1   1   1
109      1     5       8   8   8   8   8
                       7   7   7   7   7
                       8   8   8   8   8
                       2   2   2   2   2
110      1     1       8
                       5
                       6
                       4
111      1     5       6   6   6   6   6
                      10  10  10  10  10
                       3   3   3   3   3
                       1   1   1   1   1
112      1     5       2   2   2   2   2
                       3   3   3   3   3
                       2   2   2   2   2
                      10  10  10  10  10
113      1     5       4   4   4   4   4
                       2   2   2   2   2
                       8   8   8   8   8
                       4   4   4   4   4
114      1     2       5   5
                       1   1
                       9   9
                      10  10
115      1     2       7   7
                       6   6
                       9   9
                       2   2
116      1     2       2   1
                       6   3
                       7   4
                       7   4
117      1     3       1   1   1
                      10  10  10
                       3   3   3
                       3   3   3
118      1     7       4   4   4   4   4   4   4
                       6   6   6   6   6   6   6
                       7   7   7   7   7   7   7
                       1   1   1   1   1   1   1
119      1     2       2   2
                       9   9
                       6   6
                       9   9
120      1     3       8   8   8
                       9   9   9
                       8   8   8
                       5   5   5
121      1     4       8   8   8   8
                      10  10  10  10
                       7   7   7   7
                       2   2   2   2
122      1     0    
************************************************************************
RESOURCEAVAILABILITIES:
  R 1  R 2  R 3  R 4

  42  42  42  42  42  42  21  42  42  21  42  42  42  42  42  42  42  42  42  42  42  21  42  42  42  42  42  21  42  42  42  42  42  42  42  42  42  42  42  42  42  42  42  42  42  42  42  42  42  42  42  21  42  42  42  42  42  42  42  42  42  42  42  42  42  42  42  42  42  21  42  42  42  21  42  42  42  42  42  42  42  42  42  42  42  42  42  42  42  42  42  42  21  42  42  42  42  42  42  42  42  42  42  42  42  42  42  42  42  42  42  42  42  42  42  42  42  42  42  42  42  42  42  42  42  42  42  42  42  42  42  42  42  21  42  42  42  42  42  42  42  42  42  42  42  42  42  42  42  42  42  42  42  42  42  42  21  21  42  42  42  42  21  42  42  42  42  42  42  42  42  21  42  42  42  42  42  42  42  42  42  42  42  21  42  42  42  42  42  42  42  42  42  42  42  42  42  42  42  42  42  42  42  42  42  42  42  42  42  42  42  42  42  42  42  42  42  42  42  42  42  42  42  42  42  42  42  42  42  42  42  42  42  21  42  42  42  42  42  42  42  42  42  42  42  42  42  42  42  42  42  42  42  42  42  42  42  42  42  42  42  42  42  42  42  42  42  42  21  42  42  42  42  42  42  42  42  42  42  42  42  42  42  42  42  42  42  42  42  42  42  42  42  42  42  42  42  42  42  42  42  42  42  42  42  42  42  42  42  42  42  42  42  42  42  42  42  42  42  42  42  42  42  42  42  42  42  42  42  42  42  42  42  42  42  42  42  42  42  42  21  42  42  42  42  42  42  42  42  42  42  42  42  42  42  42  42  42  21  42  42  42  42  42  42  42  42  42  42  42  42  42  42  42  42  42  42  42  42  42  42  42  42  42  42  42  42  42  42  42  42  42  42  42  42  42  42  42  42  42  42  42  42  42  42  42  42  42  42  42  42  42  42  42  42  42  42  42  42  21  42  42  42  42  42  42  42  42  21  42  42  42  42  42  42  42  42  42  42  42  21  42  42  42  42  42  42  42  42  42  42  42  42  42  42  42  42  42  42  42  42  42  42  42  42  42  42  42  42  42  42  42  42  42  42  42  42  21  42  42  42  42  42  42  21  42  42  42  42  42  42  42  42  42  42  42  42  42  42  42  42  42  42  42  42  42  42  42  42  42  42  42  42  21  42  42  42  42  42  42  42  21  42  42  42  42  42  42  42  21  42  42  42  21  42  42  42  21  42  42  42  42  42  42  42  42  42  42  42  42  42  42  42  42  42  42  42  42  42  42  42  42  42  42  42  42  42  21  42  42  42  42  42  42  42  42  42  21  42  42  42  42  21  42  42  42  42  42  42  42  42  42  42  42  42  42  42  42  42  42  42  42  42  42  42  42  42  42  42  42  42  42  42  42  42  42  42  42  42  42  42  42  42  42  42  42  42  42  42  42  42  42  42  42  42

  48  48  48  48  48  48  24  48  48  24  48  48  48  48  48  48  48  48  48  48  48  24  48  48  48  48  48  24  48  48  48  48  48  48  48  48  48  48  48  48  48  48  48  48  48  48  48  48  48  48  48  24  48  48  48  48  48  48  48  48  48  48  48  48  48  48  48  48  48  24  48  48  48  24  48  48  48  48  48  48  48  48  48  48  48  48  48  48  48  48  48  48  24  48  48  48  48  48  48  48  48  48  48  48  48  48  48  48  48  48  48  48  48  48  48  48  48  48  48  48  48  48  48  48  48  48  48  48  48  48  48  48  48  24  48  48  48  48  48  48  48  48  48  48  48  48  48  48  48  48  48  48  48  48  48  48  24  24  48  48  48  48  24  48  48  48  48  48  48  48  48  24  48  48  48  48  48  48  48  48  48  48  48  24  48  48  48  48  48  48  48  48  48  48  48  48  48  48  48  48  48  48  48  48  48  48  48  48  48  48  48  48  48  48  48  48  48  48  48  48  48  48  48  48  48  48  48  48  48  48  48  48  48  24  48  48  48  48  48  48  48  48  48  48  48  48  48  48  48  48  48  48  48  48  48  48  48  48  48  48  48  48  48  48  48  48  48  48  24  48  48  48  48  48  48  48  48  48  48  48  48  48  48  48  48  48  48  48  48  48  48  48  48  48  48  48  48  48  48  48  48  48  48  48  48  48  48  48  48  48  48  48  48  48  48  48  48  48  48  48  48  48  48  48  48  48  48  48  48  48  48  48  48  48  48  48  48  48  48  48  24  48  48  48  48  48  48  48  48  48  48  48  48  48  48  48  48  48  24  48  48  48  48  48  48  48  48  48  48  48  48  48  48  48  48  48  48  48  48  48  48  48  48  48  48  48  48  48  48  48  48  48  48  48  48  48  48  48  48  48  48  48  48  48  48  48  48  48  48  48  48  48  48  48  48  48  48  48  48  24  48  48  48  48  48  48  48  48  24  48  48  48  48  48  48  48  48  48  48  48  24  48  48  48  48  48  48  48  48  48  48  48  48  48  48  48  48  48  48  48  48  48  48  48  48  48  48  48  48  48  48  48  48  48  48  48  48  24  48  48  48  48  48  48  24  48  48  48  48  48  48  48  48  48  48  48  48  48  48  48  48  48  48  48  48  48  48  48  48  48  48  48  48  24  48  48  48  48  48  48  48  24  48  48  48  48  48  48  48  24  48  48  48  24  48  48  48  24  48  48  48  48  48  48  48  48  48  48  48  48  48  48  48  48  48  48  48  48  48  48  48  48  48  48  48  48  48  24  48  48  48  48  48  48  48  48  48  24  48  48  48  48  24  48  48  48  48  48  48  48  48  48  48  48  48  48  48  48  48  48  48  48  48  48  48  48  48  48  48  48  48  48  48  48  48  48  48  48  48  48  48  48  48  48  48  48  48  48  48  48  48  48  48  48  48

  44  44  44  44  44  44  22  44  44  22  44  44  44  44  44  44  44  44  44  44  44  22  44  44  44  44  44  22  44  44  44  44  44  44  44  44  44  44  44  44  44  44  44  44  44  44  44  44  44  44  44  22  44  44  44  44  44  44  44  44  44  44  44  44  44  44  44  44  44  22  44  44  44  22  44  44  44  44  44  44  44  44  44  44  44  44  44  44  44  44  44  44  22  44  44  44  44  44  44  44  44  44  44  44  44  44  44  44  44  44  44  44  44  44  44  44  44  44  44  44  44  44  44  44  44  44  44  44  44  44  44  44  44  22  44  44  44  44  44  44  44  44  44  44  44  44  44  44  44  44  44  44  44  44  44  44  22  22  44  44  44  44  22  44  44  44  44  44  44  44  44  22  44  44  44  44  44  44  44  44  44  44  44  22  44  44  44  44  44  44  44  44  44  44  44  44  44  44  44  44  44  44  44  44  44  44  44  44  44  44  44  44  44  44  44  44  44  44  44  44  44  44  44  44  44  44  44  44  44  44  44  44  44  22  44  44  44  44  44  44  44  44  44  44  44  44  44  44  44  44  44  44  44  44  44  44  44  44  44  44  44  44  44  44  44  44  44  44  22  44  44  44  44  44  44  44  44  44  44  44  44  44  44  44  44  44  44  44  44  44  44  44  44  44  44  44  44  44  44  44  44  44  44  44  44  44  44  44  44  44  44  44  44  44  44  44  44  44  44  44  44  44  44  44  44  44  44  44  44  44  44  44  44  44  44  44  44  44  44  44  22  44  44  44  44  44  44  44  44  44  44  44  44  44  44  44  44  44  22  44  44  44  44  44  44  44  44  44  44  44  44  44  44  44  44  44  44  44  44  44  44  44  44  44  44  44  44  44  44  44  44  44  44  44  44  44  44  44  44  44  44  44  44  44  44  44  44  44  44  44  44  44  44  44  44  44  44  44  44  22  44  44  44  44  44  44  44  44  22  44  44  44  44  44  44  44  44  44  44  44  22  44  44  44  44  44  44  44  44  44  44  44  44  44  44  44  44  44  44  44  44  44  44  44  44  44  44  44  44  44  44  44  44  44  44  44  44  22  44  44  44  44  44  44  22  44  44  44  44  44  44  44  44  44  44  44  44  44  44  44  44  44  44  44  44  44  44  44  44  44  44  44  44  22  44  44  44  44  44  44  44  22  44  44  44  44  44  44  44  22  44  44  44  22  44  44  44  22  44  44  44  44  44  44  44  44  44  44  44  44  44  44  44  44  44  44  44  44  44  44  44  44  44  44  44  44  44  22  44  44  44  44  44  44  44  44  44  22  44  44  44  44  22  44  44  44  44  44  44  44  44  44  44  44  44  44  44  44  44  44  44  44  44  44  44  44  44  44  44  44  44  44  44  44  44  44  44  44  44  44  44  44  44  44  44  44  44  44  44  44  44  44  44  44  44

  35  35  35  35  35  35  18  35  35  18  35  35  35  35  35  35  35  35  35  35  35  18  35  35  35  35  35  18  35  35  35  35  35  35  35  35  35  35  35  35  35  35  35  35  35  35  35  35  35  35  35  18  35  35  35  35  35  35  35  35  35  35  35  35  35  35  35  35  35  18  35  35  35  18  35  35  35  35  35  35  35  35  35  35  35  35  35  35  35  35  35  35  18  35  35  35  35  35  35  35  35  35  35  35  35  35  35  35  35  35  35  35  35  35  35  35  35  35  35  35  35  35  35  35  35  35  35  35  35  35  35  35  35  18  35  35  35  35  35  35  35  35  35  35  35  35  35  35  35  35  35  35  35  35  35  35  18  18  35  35  35  35  18  35  35  35  35  35  35  35  35  18  35  35  35  35  35  35  35  35  35  35  35  18  35  35  35  35  35  35  35  35  35  35  35  35  35  35  35  35  35  35  35  35  35  35  35  35  35  35  35  35  35  35  35  35  35  35  35  35  35  35  35  35  35  35  35  35  35  35  35  35  35  18  35  35  35  35  35  35  35  35  35  35  35  35  35  35  35  35  35  35  35  35  35  35  35  35  35  35  35  35  35  35  35  35  35  35  18  35  35  35  35  35  35  35  35  35  35  35  35  35  35  35  35  35  35  35  35  35  35  35  35  35  35  35  35  35  35  35  35  35  35  35  35  35  35  35  35  35  35  35  35  35  35  35  35  35  35  35  35  35  35  35  35  35  35  35  35  35  35  35  35  35  35  35  35  35  35  35  18  35  35  35  35  35  35  35  35  35  35  35  35  35  35  35  35  35  18  35  35  35  35  35  35  35  35  35  35  35  35  35  35  35  35  35  35  35  35  35  35  35  35  35  35  35  35  35  35  35  35  35  35  35  35  35  35  35  35  35  35  35  35  35  35  35  35  35  35  35  35  35  35  35  35  35  35  35  35  18  35  35  35  35  35  35  35  35  18  35  35  35  35  35  35  35  35  35  35  35  18  35  35  35  35  35  35  35  35  35  35  35  35  35  35  35  35  35  35  35  35  35  35  35  35  35  35  35  35  35  35  35  35  35  35  35  35  18  35  35  35  35  35  35  18  35  35  35  35  35  35  35  35  35  35  35  35  35  35  35  35  35  35  35  35  35  35  35  35  35  35  35  35  18  35  35  35  35  35  35  35  18  35  35  35  35  35  35  35  18  35  35  35  18  35  35  35  18  35  35  35  35  35  35  35  35  35  35  35  35  35  35  35  35  35  35  35  35  35  35  35  35  35  35  35  35  35  18  35  35  35  35  35  35  35  35  35  18  35  35  35  35  18  35  35  35  35  35  35  35  35  35  35  35  35  35  35  35  35  35  35  35  35  35  35  35  35  35  35  35  35  35  35  35  35  35  35  35  35  35  35  35  35  35  35  35  35  35  35  35  35  35  35  35  35

************************************************************************
